(set-info :smt-lib-version 2.6)
(set-logic QF_S)
(set-info :source |
Generated by: Murphy Berzish, Mitja Kulczynski, Federico Mora, Florin Manea, Joel Day, Dirk Nowotka, Vijay Ganesh, Zhengyang Lu
Generated on: 2020-10-01
Description: Translated from a collection of real-world regex queries, AutomataArk, collected by Loris D’Antoni and Fang Wang: https://github.com/lorisdanto/automatark
Application: Evaluate solvers on real-world regex queries
Target solver: Z3str3RE, CVC4, OSTRICH, Z3seq, Z3str3, Z3-Trau
Publications: Berzish, M., Kulczynski, M., Mora, F., Manea, F., Day, J. D., Nowotka, D., & Ganesh, V. (2021, July). An SMT solver for regular expressions and linear arithmetic over string length. In CAV 2021.
|)
(set-info :license "https://creativecommons.org/licenses/by/4.0/")
(set-info :category "industrial")
(set-info :status sat)

(declare-const X String)
(assert (not (str.in_re X (re.++ (str.to_re "search.dropspam.com") (re.* re.allchar) (str.to_re "SupportFiles\u{13}") (re.* re.allchar) (str.to_re "Referer:\u{a}")))))
(assert (not (str.in_re X (re.++ (str.to_re "Keystrokes") (re.* re.allchar) (str.to_re "LOG") (re.* re.allchar) (str.to_re "Host:www.serverlogic3.com\u{a}")))))
(assert (not (str.in_re X (re.++ (re.union (re.++ (str.to_re "A") (re.union (str.to_re "L") (str.to_re "K") (str.to_re "S") (str.to_re "Z") (str.to_re "R"))) (re.++ (str.to_re "C") (re.union (str.to_re "A") (str.to_re "O") (str.to_re "T"))) (re.++ (str.to_re "D") (re.union (str.to_re "E") (str.to_re "C"))) (re.++ (str.to_re "F") (re.union (str.to_re "M") (str.to_re "L"))) (re.++ (str.to_re "G") (re.union (str.to_re "A") (str.to_re "U"))) (str.to_re "HI") (re.++ (str.to_re "I") (re.union (str.to_re "D") (str.to_re "L") (str.to_re "N") (str.to_re "A"))) (re.++ (str.to_re "K") (re.union (str.to_re "S") (str.to_re "Y"))) (str.to_re "LA") (re.++ (str.to_re "M") (re.union (str.to_re "E") (str.to_re "H") (str.to_re "D") (str.to_re "A") (str.to_re "I") (str.to_re "N") (str.to_re "S") (str.to_re "O") (str.to_re "T"))) (re.++ (str.to_re "N") (re.union (str.to_re "E") (str.to_re "V") (str.to_re "H") (str.to_re "J") (str.to_re "M") (str.to_re "Y") (str.to_re "C") (str.to_re "D"))) (str.to_re "MP") (re.++ (str.to_re "O") (re.union (str.to_re "H") (str.to_re "K") (str.to_re "R"))) (re.++ (str.to_re "P") (re.union (str.to_re "W") (str.to_re "A") (str.to_re "R"))) (str.to_re "RI") (re.++ (str.to_re "S") (re.union (str.to_re "C") (str.to_re "D"))) (re.++ (str.to_re "T") (re.union (str.to_re "N") (str.to_re "X"))) (str.to_re "UT") (re.++ (str.to_re "V") (re.union (str.to_re "T") (str.to_re "I") (str.to_re "A"))) (re.++ (str.to_re "W") (re.union (str.to_re "A") (str.to_re "V") (str.to_re "I") (str.to_re "Y")))) (str.to_re "\u{a}")))))
(check-sat)

(exit)
